



10 10
7 5 5 3 1 9 8 6 2 8 9 7 4 13 6 3 3 9 0 3
7 7 5 18 9 17 6 1 8 8 2 17 1 19 0 14 3 17 4 1
3 2 8 14 9 19 5 13 6 5 7 10 0 10 4 15 1 17 2 14
3 11 4 9 7 2 6 12 8 4 0 16 5 18 1 19 2 13 9 4
6 12 9 2 3 6 2 2 7 6 4 14 0 2 5 15 8 17 1 6
4 18 8 9 3 1 0 14 2 12 6 10 1 10 9 5 5 10 7 7
9 5 5 10 6 9 8 5 4 1 2 1 1 8 3 15 7 17 0 14
5 11 7 15 3 1 8 1 9 13 1 7 4 14 6 8 0 7 2 10
0 6 5 3 8 14 7 15 9 15 3 5 4 8 1 6 6 19 2 14
7 15 8 3 9 5 1 10 2 11 0 12 6 13 5 14 3 1 4 16
